Tried aggregator 1 time.
MIP Presolve eliminated 878 rows and 507 columns.
MIP Presolve modified 37879 coefficients.
Reduced MIP has 372 rows, 618 columns, and 16419 nonzeros.
Reduced MIP has 618 binaries, 0 generals, 0 SOSs, and 0 indicators.
Presolve time = 0,15 sec. (158,82 ticks)
Found incumbent of value 121,000000 after 0,18 sec. (186,85 ticks)
Probing time = 0,01 sec. (4,15 ticks)
Tried aggregator 1 time.
MIP Presolve eliminated 14 rows and 0 columns.
MIP Presolve modified 740 coefficients.
Reduced MIP has 358 rows, 618 columns, and 15714 nonzeros.
Reduced MIP has 618 binaries, 0 generals, 0 SOSs, and 0 indicators.
Presolve time = 0,03 sec. (25,23 ticks)
Probing time = 0,01 sec. (3,99 ticks)
Clique table members: 1048.
MIP emphasis: balance optimality and feasibility.
MIP search method: dynamic search.
Parallel mode: deterministic, using up to 8 threads.
Root relaxation solution time = 0,00 sec. (3,45 ticks)

        Nodes                                         Cuts/
   Node  Left     Objective  IInf  Best Integer    Best Bound    ItCnt     Gap

*     0+    0                          121,0000        0,0000           100,00%
*     0+    0                           88,0000        0,0000           100,00%
*     0+    0                           68,0000        0,0000           100,00%
      0     0       54,8127    21       68,0000       54,8127       76   19,39%
*     0+    0                           56,0000       54,8127             2,12%
*     0+    0                           55,0000       54,8127             0,34%
      0     0        cutoff             55,0000       55,0000       88    0,00%
Elapsed time = 0,28 sec. (242,12 ticks, tree = 0,01 MB, solutions = 5)

GUB cover cuts applied:  8
Clique cuts applied:  1
Implied bound cuts applied:  13
Flow cuts applied:  1
Mixed integer rounding cuts applied:  2
Lift and project cuts applied:  2
Gomory fractional cuts applied:  4

Root node processing (before b&c):
  Real time             =    0,28 sec. (242,24 ticks)
Parallel b&c, 8 threads:
  Real time             =    0,00 sec. (0,00 ticks)
  Sync time (average)   =    0,00 sec.
  Wait time (average)   =    0,00 sec.
                          ------------
Total (root+branch&cut) =    0,28 sec. (242,24 ticks)

